NAME : portcgen-15-29
COMMENT : portcgen N=15, seed=29
TYPE : TSP
DIMENSION : 15
EDGE_WEIGHT_TYPE : EUC_2D
NODE_COORD_SECTION
1 -332435 -226245
2 -22073 590860
3 554829 -43898
4 295826 -108330
5 -174706 -121255
6 -305952 109993
7 -385867 -485441
8 -52235 -55009
9 78069 -144945
10 -353467 -353067
11 -411698 178369
12 279028 -82918
13 152051 480985
14 172679 119424
15 239308 423459
